
Gurobi 8.0.1 (linux64, Python) logging started Fri Dec 14 11:20:04 2018

Academic license - for non-commercial use only

Gurobi 8.0.1 (linux64, Python) logging started Fri Dec 14 11:24:28 2018

Academic license - for non-commercial use only

Gurobi 8.0.1 (linux64, Python) logging started Fri Dec 14 11:24:42 2018

Academic license - for non-commercial use only

Gurobi 8.0.1 (linux64, Python) logging started Fri Dec 14 11:25:22 2018

Academic license - for non-commercial use only

Gurobi 8.0.1 (linux64, Python) logging started Fri Dec 14 11:28:53 2018

Academic license - for non-commercial use only

Gurobi 8.0.1 (linux64, Python) logging started Fri Dec 14 11:30:20 2018

Academic license - for non-commercial use only

Gurobi 8.0.1 (linux64, Python) logging started Fri Dec 14 11:37:58 2018

Academic license - for non-commercial use only

Gurobi 8.0.1 (linux64, Python) logging started Fri Dec 14 11:43:06 2018

Academic license - for non-commercial use only

Gurobi 8.0.1 (linux64, Python) logging started Fri Dec 14 11:43:55 2018

Academic license - for non-commercial use only

Gurobi 8.0.1 (linux64, Python) logging started Fri Dec 14 11:44:18 2018

Academic license - for non-commercial use only

Gurobi 8.0.1 (linux64, Python) logging started Fri Dec 14 11:44:33 2018

Academic license - for non-commercial use only

Gurobi 8.0.1 (linux64, Python) logging started Fri Dec 14 11:46:02 2018

Academic license - for non-commercial use only

Gurobi 8.0.1 (linux64, Python) logging started Fri Dec 14 11:48:43 2018

Academic license - for non-commercial use only

Gurobi 8.0.1 (linux64, Python) logging started Fri Dec 14 14:25:44 2018

Academic license - for non-commercial use only

Gurobi 8.0.1 (linux64, Python) logging started Fri Dec 14 14:27:36 2018

Academic license - for non-commercial use only
